sat
(model
  (define-fun |map$unknown:2|
    ( (v_0 Int) (v_1 Int) ) Bool
    (= (+ v_0 (* (- 1) v_1)) 0)
  )
  (define-fun |zip$unknown:4|
    ( (v_0 Int) (v_1 Int) ) Bool
    (and (= (+ v_0 (* (- 1) v_1)) 0) (or (not (= v_1 0)) (= v_0 0)) (or (= v_1 0) (not (= v_0 0))))
  )
  (define-fun |zip$unknown:5|
    ( (v_0 Int) (v_1 Int) (v_2 Int) ) Bool
    (= (+ v_0 (* (- 1) v_1)) 0)
  )
)
